92 4
19 29 18 40
0 0 0 0 0 3 2 3 4
2 0 0 6 0 3 5 6 9
6 10 0 0 0 3 7 61 76
4 0 0 0 2 1 10
10 0 0 1 0 3 8 24 32
2 0 0 1 0 3 12 35 36
5 0 0 0 3 2 33 77
8 0 0 4 0 3 13 54 88
1 0 0 4 0 1 67
3 0 0 5 0 2 11 50
10 0 0 7 0 3 14 16 23
6 0 4 0 0 1 83
5 0 7 0 0 3 15 17 18
6 0 6 0 0 3 27 47 78
4 0 0 1 0 3 30 52 82
6 7 0 0 0 3 18 19 28
4 0 10 0 0 1 46
9 6 0 0 0 1 63
5 0 0 3 0 3 20 21 25
6 0 7 0 0 3 22 26 67
8 0 0 0 4 2 65 91
6 0 0 0 3 2 56 73
7 0 0 0 3 3 31 39 77
6 0 0 6 0 1 29
6 2 0 0 0 3 48 58 68
10 6 0 0 0 1 78
8 0 7 0 0 2 60 64
1 0 0 0 2 3 34 37 44
6 0 0 0 3 1 60
9 0 0 0 8 1 45
5 0 0 0 7 1 38
7 0 0 0 7 1 57
9 10 0 0 0 1 39
4 0 0 0 9 1 87
4 0 0 4 0 3 40 43 81
6 0 1 0 0 1 89
1 0 0 7 0 2 42 90
6 1 0 0 0 1 41
9 0 5 0 0 2 52 59
5 9 0 0 0 1 70
4 0 0 0 7 1 49
5 0 0 3 0 1 80
6 0 0 0 7 2 51 69
7 1 0 0 0 2 48 59
5 0 0 3 0 2 49 77
8 0 0 1 0 1 71
10 0 0 0 5 1 55
2 7 0 0 0 2 66 71
5 1 0 0 0 1 53
5 0 0 0 3 1 53
6 0 0 0 10 1 61
7 0 10 0 0 1 62
2 0 0 10 0 2 67 73
3 0 7 0 0 1 72
2 0 0 5 0 1 62
3 0 4 0 0 1 83
4 0 3 0 0 2 74 87
5 0 0 0 9 1 72
2 0 0 0 10 1 72
2 0 0 0 8 1 70
7 1 0 0 0 1 80
3 1 0 0 0 1 79
8 0 0 5 0 1 66
2 8 0 0 0 1 66
9 0 0 0 1 1 81
9 0 0 3 0 1 75
6 3 0 0 0 1 85
6 0 0 0 6 1 89
5 0 0 1 0 1 83
1 0 0 0 8 1 79
1 0 0 0 3 1 80
7 0 8 0 0 1 81
1 0 0 6 0 1 85
1 0 7 0 0 1 84
2 0 0 0 4 1 82
2 10 0 0 0 1 87
9 0 0 1 0 1 86
2 7 0 0 0 1 90
7 0 9 0 0 1 86
1 0 9 0 0 1 84
5 0 0 0 2 1 82
9 0 6 0 0 1 85
7 0 0 0 7 1 86
2 0 0 5 0 1 91
8 0 0 2 0 1 89
5 0 5 0 0 1 91
10 0 0 1 0 1 88
3 0 0 5 0 1 90
9 0 0 4 0 1 92
8 0 5 0 0 1 92
6 0 0 0 7 1 92
0 0 0 0 0 0 